(set-logic QF_NRA)
; benchmark generated from python API
(set-info :status unknown)
(declare-fun v1y () Real)
(declare-fun oy () Real)
(declare-fun v1x () Real)
(declare-fun R2 () Real)
(declare-fun y1y () Real)
(declare-fun xy () Real)
(declare-fun y1x () Real)
(declare-fun xx () Real)
(declare-fun rho2 () Real)
(declare-fun y2y () Real)
(declare-fun y2x () Real)
(declare-fun b1y () Real)
(declare-fun b1x () Real)
(declare-fun b2y () Real)
(declare-fun b2x () Real)
(assert
 (let ((?x400 (* (- 1.0) v1x)))
 (let ((?x171 (* (- 1.0) R2)))
 (let ((?x235 (+ (+ (+ (+ (/ 1.0 4.0) (* oy oy)) (* v1x v1x)) (* v1y v1y)) ?x171)))
 (= (+ (+ ?x235 ?x400) (* (* (- 2.0) oy) v1y)) 0.0)))))
(assert
 (= (+ (+ (/ 1.0 4.0) (* oy oy)) (* (- 1.0) R2)) 0.0))
(assert
 (let ((?x199 (* (- 1.0) rho2)))
 (let ((?x150 (* y1y y1y)))
 (let ((?x254 (+ (+ (+ (+ (* xx xx) (* xy xy)) (* y1x y1x)) ?x150) ?x199)))
 (= (+ (+ ?x254 (* (* (- 2.0) xx) y1x)) (* (* (- 2.0) xy) y1y)) 0.0)))))
(assert
 (let ((?x199 (* (- 1.0) rho2)))
 (let ((?x236 (* y2y y2y)))
 (let ((?x55 (+ (+ (+ (+ (* xx xx) (* xy xy)) (* y2x y2x)) ?x236) ?x199)))
 (= (+ (+ ?x55 (* (* (- 2.0) xx) y2x)) (* (* (- 2.0) xy) y2y)) 0.0)))))
(assert
 (let ((?x199 (* (- 1.0) rho2)))
 (let ((?x266 (* xy xy)))
 (let ((?x88 (+ (+ (+ (+ (* b1x b1x) (* b1y b1y)) (* xx xx)) ?x266) ?x199)))
 (= (+ (+ ?x88 (* (* (- 2.0) b1x) xx)) (* (* (- 2.0) b1y) xy)) 0.0)))))
(assert
 (let ((?x199 (* (- 1.0) rho2)))
 (let ((?x266 (* xy xy)))
 (let ((?x89 (+ (+ (+ (+ (* b2x b2x) (* b2y b2y)) (* xx xx)) ?x266) ?x199)))
 (= (+ (+ ?x89 (* (* (- 2.0) b2x) xx)) (* (* (- 2.0) b2y) xy)) 0.0)))))
(assert
 (let ((?x489 (+ (+ (+ (+ (- (/ 1.0 4.0)) R2) xx) (* (- 1.0) (* oy oy))) (* (- 1.0) (* xx xx)))))
 (>= (+ (+ ?x489 (* (- 1.0) (* xy xy))) (* (* 2.0 oy) xy)) 0.0)))
(assert
 (let ((?x128 (+ (+ (+ (+ (- (/ 1.0 4.0)) R2) y1x) (* (- 1.0) (* oy oy))) (* (- 1.0) (* y1x y1x)))))
 (>= (+ (+ ?x128 (* (- 1.0) (* y1y y1y))) (* (* 2.0 oy) y1y)) 0.0)))
(assert
 (let ((?x72 (+ (+ (+ (+ (- (/ 1.0 4.0)) R2) y2x) (* (- 1.0) (* oy oy))) (* (- 1.0) (* y2x y2x)))))
 (>= (+ (+ ?x72 (* (- 1.0) (* y2y y2y))) (* (* 2.0 oy) y2y)) 0.0)))
(assert
 (let ((?x242 (* oy oy)))
 (let ((?x191 (* (- 1.0) ?x242)))
 (let ((?x108 (+ (+ (+ (+ (- (/ 1.0 4.0)) R2) b1x) (* (- 1.0) (* b1x b1x))) (* (- 1.0) (* b1y b1y)))))
 (>= (+ (+ ?x108 ?x191) (* (* 2.0 b1y) oy)) 0.0)))))
(assert
 (let ((?x242 (* oy oy)))
 (let ((?x191 (* (- 1.0) ?x242)))
 (let ((?x343 (+ (+ (+ (+ (- (/ 1.0 4.0)) R2) b2x) (* (- 1.0) (* b2x b2x))) (* (- 1.0) (* b2y b2y)))))
 (>= (+ (+ ?x343 ?x191) (* (* 2.0 b2y) oy)) 0.0)))))
(assert
 (>= (+ (+ (* v1x v1x) (* v1y v1y)) (* (- 1.0) v1x)) 0.0))
(assert
 (>= v1x 0.0))
(assert
 (>= (+ 1.0 (* (- 1.0) v1x)) 0.0))
(assert
 (> R2 0.0))
(assert
 (> rho2 0.0))
(assert
 (let ((?x106 (* (- 1.0) v1y)))
 (let ((?x100 (* ?x106 xy)))
 (> ?x100 0.0))))
(assert
 (let ((?x315 (+ (+ (* v1y v1y) (* (* (- 1.0) v1y) xy)) (* (* (- 1.0) xx) (* v1y v1y)))))
 (> (+ ?x315 (* (* v1x v1y) xy)) 0.0)))
(assert
 (> (+ (* xx (* v1y v1y)) (* (* (* (- 1.0) v1x) v1y) xy)) 0.0))
(assert
 (let ((?x106 (* (- 1.0) v1y)))
 (let ((?x142 (* ?x106 y1y)))
 (> ?x142 0.0))))
(assert
 (let ((?x329 (+ (+ (* v1y v1y) (* (* (- 1.0) v1y) y1y)) (* (* (- 1.0) y1x) (* v1y v1y)))))
 (> (+ ?x329 (* (* v1x v1y) y1y)) 0.0)))
(assert
 (> (+ (* y1x (* v1y v1y)) (* (* (* (- 1.0) v1x) v1y) y1y)) 0.0))
(assert
 (let ((?x106 (* (- 1.0) v1y)))
 (let ((?x195 (* ?x106 y2y)))
 (> ?x195 0.0))))
(assert
 (let ((?x109 (+ (+ (* v1y v1y) (* (* (- 1.0) v1y) y2y)) (* (* (- 1.0) y2x) (* v1y v1y)))))
 (> (+ ?x109 (* (* v1x v1y) y2y)) 0.0)))
(assert
 (> (+ (* y2x (* v1y v1y)) (* (* (* (- 1.0) v1x) v1y) y2y)) 0.0))
(assert
 (> (* b1y v1y) 0.0))
(assert
 (let ((?x56 (* b1y v1x)))
 (let ((?x62 (* ?x56 v1y)))
 (let ((?x120 (+ (+ (* v1y v1y) (* (* (- 1.0) b1x) (* v1y v1y))) (* (* (- 1.0) b1y) v1y))))
 (> (+ ?x120 ?x62) 0.0)))))
(assert
 (> (+ (* (* (- 1.0) b1x) (* v1y v1y)) (* (* b1y v1x) v1y)) 0.0))
(assert
 (> (* b2y v1y) 0.0))
(assert
 (let ((?x158 (* b2y v1x)))
 (let ((?x119 (* ?x158 v1y)))
 (let ((?x63 (+ (+ (* v1y v1y) (* (* (- 1.0) b2x) (* v1y v1y))) (* (* (- 1.0) b2y) v1y))))
 (> (+ ?x63 ?x119) 0.0)))))
(assert
 (> (+ (* (* (- 1.0) b2x) (* v1y v1y)) (* (* b2y v1x) v1y)) 0.0))
(assert
 (> (+ (* xx y1y) (* (* (- 1.0) xy) y1x)) 0.0))
(assert
 (> (+ (* xx y2y) (* (* (- 1.0) xy) y2x)) 0.0))
(assert
 (let ((?x141 (* (- 1.0) xy)))
 (> ?x141 0.0)))
(assert
 (> (+ (* v1y xx) (* (* (- 1.0) v1x) xy)) 0.0))
(assert
 (> (+ (* b1y xx) (* (* (- 1.0) b1x) xy)) 0.0))
(assert
 (> (+ (* b2y xx) (* (* (- 1.0) b2x) xy)) 0.0))
(assert
 (> (+ (* y1x y2y) (* (* (- 1.0) y1y) y2x)) 0.0))
(assert
 (let ((?x197 (* (- 1.0) y1y)))
 (> ?x197 0.0)))
(assert
 (> (+ (* v1y y1x) (* (* (- 1.0) v1x) y1y)) 0.0))
(assert
 (> (+ (* b1y y1x) (* (* (- 1.0) b1x) y1y)) 0.0))
(assert
 (> (+ (* b2y y1x) (* (* (- 1.0) b2x) y1y)) 0.0))
(assert
 (let ((?x323 (* (- 1.0) y2y)))
 (> ?x323 0.0)))
(assert
 (> (+ (* v1y y2x) (* (* (- 1.0) v1x) y2y)) 0.0))
(assert
 (> (+ (* b1y y2x) (* (* (- 1.0) b1x) y2y)) 0.0))
(assert
 (> (+ (* b2y y2x) (* (* (- 1.0) b2x) y2y)) 0.0))
(assert
 (> v1y 0.0))
(assert
 (> b1y 0.0))
(assert
 (> b2y 0.0))
(assert
 (> (+ (* b1y v1x) (* (* (- 1.0) b1x) v1y)) 0.0))
(assert
 (> (+ (* b2y v1x) (* (* (- 1.0) b2x) v1y)) 0.0))
(assert
 (> (+ (* b1x b2y) (* (* (- 1.0) b1y) b2x)) 0.0))
(assert
 (let ((?x197 (* (- 1.0) y1y)))
 (let ((?x325 (* ?x197 y2x)))
 (let ((?x141 (* (- 1.0) xy)))
 (let ((?x145 (* ?x141 y1x)))
 (let ((?x367 (+ (+ (+ (* xx y1y) (* xy y2x)) (* y1x y2y)) (* (* (- 1.0) xx) y2y))))
 (> (+ (+ ?x367 ?x145) ?x325) 0.0)))))))
(assert
 (let ((?x141 (* (- 1.0) xy)))
 (let ((?x145 (* ?x141 y1x)))
 (> (+ (+ (+ xy (* (- 1.0) y1y)) (* xx y1y)) ?x145) 0.0))))
(assert
 (let ((?x141 (* (- 1.0) xy)))
 (let ((?x145 (* ?x141 y1x)))
 (let ((?x106 (* (- 1.0) v1y)))
 (let ((?x348 (* ?x106 xx)))
 (let ((?x400 (* (- 1.0) v1x)))
 (let ((?x144 (* ?x400 y1y)))
 (let ((?x397 (+ (+ (+ (+ (* v1x xy) (* v1y y1x)) (* xx y1y)) ?x144) ?x348)))
 (> (+ ?x397 ?x145) 0.0)))))))))
(assert
 (let ((?x141 (* (- 1.0) xy)))
 (let ((?x145 (* ?x141 y1x)))
 (let ((?x123 (* (- 1.0) b1y)))
 (let ((?x389 (* ?x123 xx)))
 (let ((?x126 (* (- 1.0) b1x)))
 (let ((?x149 (* ?x126 y1y)))
 (let ((?x155 (+ (+ (+ (+ (* b1x xy) (* b1y y1x)) (* xx y1y)) ?x149) ?x389)))
 (> (+ ?x155 ?x145) 0.0)))))))))
(assert
 (let ((?x141 (* (- 1.0) xy)))
 (let ((?x145 (* ?x141 y1x)))
 (let ((?x138 (* (- 1.0) b2y)))
 (let ((?x404 (* ?x138 xx)))
 (let ((?x188 (* (- 1.0) b2x)))
 (let ((?x38 (* ?x188 y1y)))
 (let ((?x392 (+ (+ (+ (+ (* b2x xy) (* b2y y1x)) (* xx y1y)) ?x38) ?x404)))
 (> (+ ?x392 ?x145) 0.0)))))))))
(assert
 (let ((?x141 (* (- 1.0) xy)))
 (let ((?x368 (* ?x141 y2x)))
 (> (+ (+ (+ xy (* (- 1.0) y2y)) (* xx y2y)) ?x368) 0.0))))
(assert
 (let ((?x141 (* (- 1.0) xy)))
 (let ((?x368 (* ?x141 y2x)))
 (let ((?x106 (* (- 1.0) v1y)))
 (let ((?x348 (* ?x106 xx)))
 (let ((?x400 (* (- 1.0) v1x)))
 (let ((?x15 (* ?x400 y2y)))
 (let ((?x401 (+ (+ (+ (+ (* v1x xy) (* v1y y2x)) (* xx y2y)) ?x15) ?x348)))
 (> (+ ?x401 ?x368) 0.0)))))))))
(assert
 (let ((?x141 (* (- 1.0) xy)))
 (let ((?x368 (* ?x141 y2x)))
 (let ((?x123 (* (- 1.0) b1y)))
 (let ((?x389 (* ?x123 xx)))
 (let ((?x126 (* (- 1.0) b1x)))
 (let ((?x186 (* ?x126 y2y)))
 (let ((?x418 (+ (+ (+ (+ (* b1x xy) (* b1y y2x)) (* xx y2y)) ?x186) ?x389)))
 (> (+ ?x418 ?x368) 0.0)))))))))
(assert
 (let ((?x141 (* (- 1.0) xy)))
 (let ((?x368 (* ?x141 y2x)))
 (let ((?x138 (* (- 1.0) b2y)))
 (let ((?x404 (* ?x138 xx)))
 (let ((?x188 (* (- 1.0) b2x)))
 (let ((?x330 (* ?x188 y2y)))
 (let ((?x207 (+ (+ (+ (+ (* b2x xy) (* b2y y2x)) (* xx y2y)) ?x330) ?x404)))
 (> (+ ?x207 ?x368) 0.0)))))))))
(assert
 (let ((?x106 (* (- 1.0) v1y)))
 (let ((?x348 (* ?x106 xx)))
 (> (+ (+ (+ v1y (* (- 1.0) xy)) (* v1x xy)) ?x348) 0.0))))
(assert
 (let ((?x123 (* (- 1.0) b1y)))
 (let ((?x389 (* ?x123 xx)))
 (> (+ (+ (+ b1y (* (- 1.0) xy)) (* b1x xy)) ?x389) 0.0))))
(assert
 (let ((?x138 (* (- 1.0) b2y)))
 (let ((?x404 (* ?x138 xx)))
 (> (+ (+ (+ b2y (* (- 1.0) xy)) (* b2x xy)) ?x404) 0.0))))
(assert
 (let ((?x400 (* (- 1.0) v1x)))
 (let ((?x336 (* ?x400 xy)))
 (let ((?x123 (* (- 1.0) b1y)))
 (let ((?x389 (* ?x123 xx)))
 (let ((?x126 (* (- 1.0) b1x)))
 (let ((?x298 (* ?x126 v1y)))
 (let ((?x221 (+ (+ (+ (+ (* b1x xy) (* b1y v1x)) (* v1y xx)) ?x298) ?x389)))
 (> (+ ?x221 ?x336) 0.0)))))))))
(assert
 (let ((?x400 (* (- 1.0) v1x)))
 (let ((?x336 (* ?x400 xy)))
 (let ((?x138 (* (- 1.0) b2y)))
 (let ((?x404 (* ?x138 xx)))
 (let ((?x188 (* (- 1.0) b2x)))
 (let ((?x324 (* ?x188 v1y)))
 (let ((?x481 (+ (+ (+ (+ (* b2x xy) (* b2y v1x)) (* v1y xx)) ?x324) ?x404)))
 (> (+ ?x481 ?x336) 0.0)))))))))
(assert
 (let ((?x138 (* (- 1.0) b2y)))
 (let ((?x404 (* ?x138 xx)))
 (let ((?x123 (* (- 1.0) b1y)))
 (let ((?x370 (* ?x123 b2x)))
 (let ((?x126 (* (- 1.0) b1x)))
 (let ((?x353 (* ?x126 xy)))
 (let ((?x25 (+ (+ (+ (+ (* b1x b2y) (* b1y xx)) (* b2x xy)) ?x353) ?x370)))
 (> (+ ?x25 ?x404) 0.0)))))))))
(assert
 (let ((?x197 (* (- 1.0) y1y)))
 (let ((?x325 (* ?x197 y2x)))
 (> (+ (+ (+ y1y (* (- 1.0) y2y)) (* y1x y2y)) ?x325) 0.0))))
(assert
 (let ((?x197 (* (- 1.0) y1y)))
 (let ((?x325 (* ?x197 y2x)))
 (let ((?x106 (* (- 1.0) v1y)))
 (let ((?x434 (* ?x106 y1x)))
 (let ((?x400 (* (- 1.0) v1x)))
 (let ((?x15 (* ?x400 y2y)))
 (let ((?x484 (+ (+ (+ (+ (* v1x y1y) (* v1y y2x)) (* y1x y2y)) ?x15) ?x434)))
 (> (+ ?x484 ?x325) 0.0)))))))))
(assert
 (let ((?x197 (* (- 1.0) y1y)))
 (let ((?x325 (* ?x197 y2x)))
 (let ((?x123 (* (- 1.0) b1y)))
 (let ((?x433 (* ?x123 y1x)))
 (let ((?x126 (* (- 1.0) b1x)))
 (let ((?x186 (* ?x126 y2y)))
 (let ((?x480 (+ (+ (+ (+ (* b1x y1y) (* b1y y2x)) (* y1x y2y)) ?x186) ?x433)))
 (> (+ ?x480 ?x325) 0.0)))))))))
(assert
 (let ((?x197 (* (- 1.0) y1y)))
 (let ((?x325 (* ?x197 y2x)))
 (let ((?x138 (* (- 1.0) b2y)))
 (let ((?x436 (* ?x138 y1x)))
 (let ((?x188 (* (- 1.0) b2x)))
 (let ((?x330 (* ?x188 y2y)))
 (let ((?x431 (+ (+ (+ (+ (* b2x y1y) (* b2y y2x)) (* y1x y2y)) ?x330) ?x436)))
 (> (+ ?x431 ?x325) 0.0)))))))))
(assert
 (let ((?x106 (* (- 1.0) v1y)))
 (let ((?x434 (* ?x106 y1x)))
 (> (+ (+ (+ v1y (* (- 1.0) y1y)) (* v1x y1y)) ?x434) 0.0))))
(assert
 (let ((?x123 (* (- 1.0) b1y)))
 (let ((?x433 (* ?x123 y1x)))
 (> (+ (+ (+ b1y (* (- 1.0) y1y)) (* b1x y1y)) ?x433) 0.0))))
(assert
 (let ((?x138 (* (- 1.0) b2y)))
 (let ((?x436 (* ?x138 y1x)))
 (> (+ (+ (+ b2y (* (- 1.0) y1y)) (* b2x y1y)) ?x436) 0.0))))
(assert
 (let ((?x400 (* (- 1.0) v1x)))
 (let ((?x144 (* ?x400 y1y)))
 (let ((?x123 (* (- 1.0) b1y)))
 (let ((?x433 (* ?x123 y1x)))
 (let ((?x126 (* (- 1.0) b1x)))
 (let ((?x298 (* ?x126 v1y)))
 (let ((?x167 (+ (+ (+ (+ (* b1x y1y) (* b1y v1x)) (* v1y y1x)) ?x298) ?x433)))
 (> (+ ?x167 ?x144) 0.0)))))))))
(assert
 (let ((?x400 (* (- 1.0) v1x)))
 (let ((?x144 (* ?x400 y1y)))
 (let ((?x138 (* (- 1.0) b2y)))
 (let ((?x436 (* ?x138 y1x)))
 (let ((?x188 (* (- 1.0) b2x)))
 (let ((?x324 (* ?x188 v1y)))
 (let ((?x430 (+ (+ (+ (+ (* b2x y1y) (* b2y v1x)) (* v1y y1x)) ?x324) ?x436)))
 (> (+ ?x430 ?x144) 0.0)))))))))
(assert
 (let ((?x138 (* (- 1.0) b2y)))
 (let ((?x436 (* ?x138 y1x)))
 (let ((?x123 (* (- 1.0) b1y)))
 (let ((?x370 (* ?x123 b2x)))
 (let ((?x126 (* (- 1.0) b1x)))
 (let ((?x149 (* ?x126 y1y)))
 (let ((?x257 (+ (+ (+ (+ (* b1x b2y) (* b1y y1x)) (* b2x y1y)) ?x149) ?x370)))
 (> (+ ?x257 ?x436) 0.0)))))))))
(assert
 (let ((?x67 (+ (+ (+ v1y (* (- 1.0) y2y)) (* v1x y2y)) (* (* (- 1.0) v1y) y2x))))
 (> ?x67 0.0)))
(assert
 (let ((?x123 (* (- 1.0) b1y)))
 (let ((?x302 (* ?x123 y2x)))
 (> (+ (+ (+ b1y (* (- 1.0) y2y)) (* b1x y2y)) ?x302) 0.0))))
(assert
 (let ((?x138 (* (- 1.0) b2y)))
 (let ((?x494 (* ?x138 y2x)))
 (> (+ (+ (+ b2y (* (- 1.0) y2y)) (* b2x y2y)) ?x494) 0.0))))
(assert
 (let ((?x400 (* (- 1.0) v1x)))
 (let ((?x15 (* ?x400 y2y)))
 (let ((?x123 (* (- 1.0) b1y)))
 (let ((?x302 (* ?x123 y2x)))
 (let ((?x126 (* (- 1.0) b1x)))
 (let ((?x298 (* ?x126 v1y)))
 (let ((?x463 (+ (+ (+ (+ (* b1x y2y) (* b1y v1x)) (* v1y y2x)) ?x298) ?x302)))
 (> (+ ?x463 ?x15) 0.0)))))))))
(assert
 (let ((?x400 (* (- 1.0) v1x)))
 (let ((?x15 (* ?x400 y2y)))
 (let ((?x138 (* (- 1.0) b2y)))
 (let ((?x494 (* ?x138 y2x)))
 (let ((?x188 (* (- 1.0) b2x)))
 (let ((?x324 (* ?x188 v1y)))
 (let ((?x475 (+ (+ (+ (+ (* b2x y2y) (* b2y v1x)) (* v1y y2x)) ?x324) ?x494)))
 (> (+ ?x475 ?x15) 0.0)))))))))
(assert
 (let ((?x138 (* (- 1.0) b2y)))
 (let ((?x494 (* ?x138 y2x)))
 (let ((?x123 (* (- 1.0) b1y)))
 (let ((?x370 (* ?x123 b2x)))
 (let ((?x126 (* (- 1.0) b1x)))
 (let ((?x186 (* ?x126 y2y)))
 (let ((?x467 (+ (+ (+ (+ (* b1x b2y) (* b1y y2x)) (* b2x y2y)) ?x186) ?x370)))
 (> (+ ?x467 ?x494) 0.0)))))))))
(assert
 (let ((?x126 (* (- 1.0) b1x)))
 (let ((?x298 (* ?x126 v1y)))
 (> (+ (+ (+ v1y (* (- 1.0) b1y)) (* b1y v1x)) ?x298) 0.0))))
(assert
 (let ((?x188 (* (- 1.0) b2x)))
 (let ((?x324 (* ?x188 v1y)))
 (> (+ (+ (+ v1y (* (- 1.0) b2y)) (* b2y v1x)) ?x324) 0.0))))
(assert
 (let ((?x123 (* (- 1.0) b1y)))
 (let ((?x370 (* ?x123 b2x)))
 (> (+ (+ (+ b1y (* (- 1.0) b2y)) (* b1x b2y)) ?x370) 0.0))))
(assert
 (let ((?x123 (* (- 1.0) b1y)))
(let ((?x370 (* ?x123 b2x)))
(let ((?x126 (* (- 1.0) b1x)))
(let ((?x298 (* ?x126 v1y)))
(let ((?x205 (+ (+ (+ (+ (* b1x b2y) (* b1y v1x)) (* b2x v1y)) ?x298) ?x370)))
(> (+ ?x205 (* (* (- 1.0) b2y) v1x)) 0.0)))))))
(check-sat)
